NAME : cp-n12-k1
COMMENT : (Claudio Procida)
TYPE : CVRP
DIMENSION : 12
EDGE_WEIGHT_TYPE : EUC_2D
CAPACITY : 500
NODE_COORD_SECTION
1	50	20
2	40  20
3	50	 0
4	10	10
5	20	30
6	10	50
7	40	60
8	60	40
9	70	20
10	80	 0
11	100	10
12	90	40
DEMAND_SECTION
1	0
2	20
3	15
4	16
5	24
6	32
7	18
8	17
9	6
10	15
11	24
12	30
DEPOT_SECTION
1
-1
EOF
